c description: Random 2-CNF over 15 variables and 15 clauses
c generator: CNFgen (0.9.0)
c copyright: (C) 2012-2020 Massimo Lauria <massimo.lauria@uniroma1.it>
c url: https://massimolauria.net/cnfgen
c
p cnf 15 15
-2 -3 0
7 14 0
1 -9 0
7 -13 0
4 -5 0
-4 8 0
6 -9 0
1 9 0
8 -15 0
4 10 0
3 10 0
11 12 0
-5 -6 0
1 -13 0
-7 8 0